Minimize
 obj: x0 + x1 + x2 + x3 + x4 + x5 + x6 + x7 + x8 + x9 + x10 + x11 + x12 + x13 + x14 + x15 + x16 + x17 + x18 + x19 + x20 + x21 + x22 + x23 + x24 + x25 + x26 + x27 + x28 + x29 + x30 + x31 + x32 + x33 + x34 + x35 + x36 + x37 + x38 + x39 + x40 + x41 + x42 + x43 + x44 + x45 + x46 + x47 + x48 + x49 + x50 + x51 + x52 + x53 + x54 + x55 + x56 + x57 + x58 + x59 + x60 + x61 + x62 + x63 + x64 + x65 + x66 + x67 + x68 + x69 + x70 + x71 + x72 + x73 + x74 + x75 + x76 + x77 + x78 + x79
  + x80 + x81 + x82 + x83 + x84 + x85 + x86 + x87 + x88 + x89 + x90 + x91 + x92 + x93 + x94 + x95 + x96 + x97 + x98 + x99 + x100 + x101 + x102 + x103 + x104 + x105 + x106 + x107 + x108 + x109 + x110 + x111 + x112 + x113 + x114 + x115 + x116 + x117 + x118 + x119 + x120 + x121 + x122 + x123 + x124 + x125 + x126 + x127 + x128 + x129 + x130 + x131 + x132 + x133 + x134 + x135 + x136 + x137 + x138 + x139 + x140 + x141 + x142 + x143 + x144 + x145 + x146 + x147 + x148 + x149 + x150 + x151 + x152 + x153 + x154 + x155 + x156 + x157 + x158 + x159
  + x160 + x161 + x162 + x163 + x164 + x165 + x166 + x167 + x168 + x169 + x170 + x171 + x172 + x173 + x174 + x175 + x176 + x177 + x178 + x179 + x180 + x181 + x182 + x183 + x184 + x185 + x186 + x187 + x188 + x189 + x190 + x191 + x192 + x193 + x194 + x195 + x196 + x197 + x198 + x199 + x200 + x201 + x202 + x203 + x204 + x205 + x206 + x207 + x208 + x209 + x210 + x211 + x212 + x213 + x214 + x215 + x216 + x217 + x218 + x219 + x220 + x221 + x222 + x223 + x224 + x225 + x226 + x227 + x228 + x229 + x230 + x231 + x232 + x233 + x234 + x235 + x236 + x237 + x238 + x239
  + x240 + x241 + x242 + x243 + x244 + x245 + x246 + x247 + x248 + x249 + x250 + x251 + x252 + x253 + x254 + x255 + x256 + x257 + x258 + x259 + x260 + x261 + x262 + x263 + x264 + x265 + x266 + x267 + x268 + x269 + x270 + x271 + x272 + x273 + x274 + x275 + x276 + x277 + x278 + x279 + x280 + x281 + x282 + x283 + x284 + x285 + x286 + x287 + x288 + x289 + x290 + x291 + x292 + x293 + x294 + x295 + x296 + x297 + x298 + x299 + x300 + x301 + x302 + x303 + x304 + x305 + x306 + x307 + x308 + x309 + x310 + x311 + x312 + x313 + x314 + x315 + x316 + x317 + x318 + x319
  + x320 + x321 + x322 + x323 + x324 + x325 + x326 + x327 + x328 + x329 + x330 + x331 + x332 + x333 + x334 + x335 + x336 + x337 + x338 + x339 + x340 + x341 + x342 + x343 + x344 + x345 + x346 + x347 + x348 + x349 + x350 + x351 + x352 + x353 + x354 + x355 + x356 + x357 + x358 + x359 + x360 + x361 + x362 + x363 + x364 + x365 + x366 + x367 + x368 + x369 + x370 + x371 + x372 + x373 + x374 + x375 + x376 + x377 + x378 + x379 + x380 + x381 + x382 + x383 + x384 + x385 + x386 + x387 + x388 + x389 + x390 + x391 + x392 + x393 + x394 + x395 + x396 + x397 + x398 + x399
  + x400 + x401 + x402 + x403 + x404 + x405 + x406 + x407 + x408 + x409 + x410 + x411 + x412 + x413 + x414 + x415 + x416 + x417 + x418 + x419 + x420 + x421 + x422 + x423 + x424 + x425 + x426 + x427 + x428 + x429 + x430 + x431 + x432 + x433 + x434 + x435 + x436 + x437 + x438 + x439 + x440 + x441 + x442 + x443 + x444 + x445 + x446 + x447 + x448 + x449 + x450 + x451 + x452 + x453 + x454 + x455 + x456 + x457 + x458 + x459 + x460 + x461 + x462 + x463 + x464 + x465
Subject To
 pair_0_1: x11 + x24 + x29 + x62 + x77 + x80 + x81 + x90 + x101 + x107 + x108 + x109 + x110 + x111 + x112 + x113 + x114 + x116 + x120 + x121 + x122 + x123 + x124 + x125 + x126 + x127 + x132 + x133 + x134 + x135 + x146 + x158 + x159 + x190 + x191 + x192 + x193 + x194 + x196 + x197 + x200 + x202 + x203 + x204 + x205 + x206 + x207 + x208 + x209 + x214 + x215 + x216 + x217 + x267 + x310 + x359 + x379 + x401 + x425 + x456 + x464 >= 3
 pair_0_2: x3 + x4 + x5 + x6 + x7 + x9 + x10 + x13 + x15 + x16 + x17 + x18 + x19 + x20 + x21 + x22 + x23 + x24 + x25 + x26 + x27 + x28 + x39 + x51 + x62 + x81 + x102 + x104 + x117 + x146 + x158 + x321 + x326 + x350 + x352 + x355 + x359 + x368 + x388 + x393 + x404 + x427 + x449 + x459 >= 3
 pair_0_3: x62 + x77 + x80 + x81 + x102 + x104 + x136 + x137 + x138 + x139 + x140 + x141 + x142 + x143 + x148 + x149 + x150 + x151 + x152 + x153 + x154 + x155 + x163 + x164 + x165 + x166 + x167 + x168 + x169 + x174 + x175 + x176 + x177 + x178 + x179 + x180 + x269 + x310 + x349 + x350 + x352 + x395 + x400 >= 3
 pair_0_4: x49 + x75 + x91 + x136 + x137 + x138 + x139 + x140 + x142 + x143 + x144 + x148 + x149 + x150 + x151 + x152 + x153 + x154 + x155 + x156 + x157 + x160 + x161 + x183 + x310 + x337 + x338 + x349 + x350 + x351 + x352 + x357 + x365 + x395 + x399 + x404 >= 3
 pair_0_5: x3 + x4 + x5 + x6 + x7 + x8 + x9 + x10 + x11 + x13 + x15 + x16 + x17 + x18 + x19 + x20 + x21 + x22 + x23 + x25 + x26 + x27 + x28 + x29 + x49 + x62 + x80 + x81 + x146 + x159 + x246 + x247 + x248 + x249 + x250 + x251 + x252 + x253 + x254 + x255 + x256 + x257 + x258 + x259 + x260 + x261 + x262 + x263 + x264 + x265 + x268 + x270 + x271 + x272 + x273 + x310 + x350 + x352 + x368 + x420 >= 3
 pair_0_6: x56 + x57 + x58 + x59 + x60 + x61 + x62 + x66 + x67 + x68 + x69 + x70 + x72 + x73 + x76 + x77 + x80 + x81 + x144 + x160 + x218 + x219 + x220 + x221 + x222 + x223 + x224 + x225 + x230 + x231 + x232 + x233 + x234 + x235 + x236 + x237 + x244 + x274 + x275 + x276 + x277 + x278 + x279 + x280 + x281 + x283 + x284 + x285 + x286 + x287 + x288 + x289 + x290 + x291 + x292 + x293 + x295 + x297 + x298 + x299 + x300 + x301 + x302 + x303 + x304 + x306 + x307 + x312 + x313 + x314 + x315 + x316 + x317 + x318 + x319 + x320 + x376 + x408 + x434 + x443 >= 3
 pair_0_7: x38 + x48 + x49 + x53 + x56 + x57 + x58 + x59 + x60 + x61 + x66 + x67 + x68 + x69 + x70 + x71 + x72 + x73 + x80 + x131 + x144 + x160 + x213 + x301 + x302 + x303 + x304 + x305 + x306 + x307 + x312 + x313 + x314 + x315 + x316 + x317 + x318 + x319 + x320 + x321 + x350 + x352 + x376 + x443 >= 3
 pair_0_8: x104 + x108 + x109 + x110 + x111 + x112 + x113 + x116 + x120 + x121 + x122 + x123 + x124 + x125 + x126 + x127 + x132 + x133 + x146 + x159 + x190 + x191 + x192 + x193 + x194 + x196 + x197 + x200 + x202 + x203 + x204 + x205 + x206 + x208 + x209 + x214 + x215 + x216 + x217 + x269 + x310 + x349 + x350 + x352 + x379 + x401 >= 3
 pair_0_9: x49 + x56 + x57 + x58 + x59 + x62 + x66 + x67 + x68 + x69 + x70 + x71 + x72 + x73 + x76 + x77 + x80 + x81 + x146 + x159 + x218 + x219 + x220 + x221 + x222 + x223 + x224 + x225 + x228 + x230 + x231 + x232 + x233 + x234 + x235 + x236 + x237 + x238 + x239 + x240 + x241 + x242 + x243 + x244 + x310 + x350 + x352 + x364 + x376 + x408 + x410 >= 3
 pair_0_10: x30 + x31 + x32 + x33 + x34 + x35 + x38 + x40 + x41 + x42 + x43 + x44 + x45 + x46 + x50 + x52 + x54 + x55 + x56 + x57 + x58 + x59 + x60 + x61 + x62 + x66 + x67 + x68 + x69 + x70 + x71 + x72 + x73 + x76 + x77 + x80 + x81 + x146 + x159 + x310 + x349 + x350 + x352 + x370 + x376 >= 3
 pair_0_11: x62 + x77 + x80 + x81 + x104 + x117 + x146 + x158 + x159 + x269 + x310 + x349 + x350 + x352 >= 3
 pair_0_12: x62 + x77 + x80 + x81 + x82 + x83 + x84 + x85 + x86 + x87 + x88 + x89 + x94 + x95 + x96 + x97 + x98 + x99 + x117 + x143 + x269 + x282 + x293 + x320 + x321 + x325 + x327 + x328 + x329 + x330 + x331 + x332 + x333 + x334 + x337 + x339 + x340 + x341 + x342 + x343 + x344 + x345 + x346 + x353 + x378 + x465 >= 3
 pair_0_13: x7 + x8 + x11 + x12 + x25 + x30 + x31 + x56 + x57 + x58 + x59 + x60 + x61 + x62 + x66 + x67 + x68 + x69 + x70 + x71 + x72 + x73 + x76 + x77 + x80 + x81 + x102 + x104 + x117 + x127 + x146 + x158 + x159 + x296 + x308 + x320 + x321 + x325 + x349 + x350 + x352 + x369 + x375 + x376 + x386 + x416 + x418 + x426 + x438 + x452 + x456 >= 3
 pair_1_2: x39 + x51 + x77 + x80 + x90 + x101 + x107 + x108 + x109 + x110 + x111 + x112 + x113 + x114 + x116 + x120 + x121 + x122 + x123 + x124 + x125 + x126 + x127 + x132 + x133 + x134 + x135 + x190 + x191 + x192 + x193 + x194 + x196 + x197 + x200 + x202 + x203 + x204 + x205 + x206 + x207 + x208 + x209 + x214 + x215 + x216 + x217 + x267 + x321 + x326 + x355 + x379 + x388 + x393 + x401 + x404 + x425 + x427 + x449 + x456 + x459 + x464 >= 3
 pair_1_3: x11 + x24 + x29 + x90 + x101 + x107 + x108 + x109 + x110 + x111 + x112 + x113 + x114 + x116 + x120 + x121 + x122 + x123 + x124 + x125 + x126 + x127 + x132 + x133 + x134 + x135 + x136 + x137 + x138 + x139 + x140 + x141 + x142 + x143 + x148 + x149 + x150 + x151 + x152 + x153 + x154 + x155 + x190 + x191 + x192 + x193 + x194 + x196 + x197 + x200 + x202 + x203 + x204 + x205 + x206 + x207 + x208 + x209 + x214 + x215 + x216 + x217 + x267 + x359 + x379 + x395 + x401 + x425 + x456 + x464 >= 3
 pair_1_4: x11 + x24 + x29 + x75 + x91 + x108 + x109 + x110 + x111 + x112 + x113 + x114 + x116 + x120 + x121 + x122 + x123 + x124 + x125 + x126 + x127 + x132 + x133 + x134 + x135 + x136 + x137 + x138 + x139 + x140 + x142 + x143 + x144 + x148 + x149 + x150 + x151 + x152 + x153 + x154 + x155 + x156 + x157 + x160 + x161 + x190 + x191 + x192 + x193 + x194 + x196 + x197 + x200 + x202 + x203 + x204 + x205 + x206 + x207 + x208 + x209 + x214 + x215 + x216 + x217 + x267 + x357 + x359 + x365 + x379 + x395 + x401 + x404 + x425 + x456 + x464 >= 3
 pair_1_5: x24 + x77 + x90 + x101 + x107 + x108 + x109 + x110 + x111 + x112 + x113 + x114 + x116 + x120 + x121 + x122 + x123 + x124 + x125 + x126 + x127 + x132 + x133 + x134 + x135 + x158 + x190 + x191 + x192 + x193 + x194 + x196 + x197 + x200 + x202 + x203 + x204 + x205 + x206 + x207 + x208 + x209 + x214 + x215 + x216 + x217 + x267 + x359 + x379 + x401 + x425 + x456 + x464 >= 3
 pair_1_6: x11 + x24 + x29 + x56 + x57 + x58 + x59 + x60 + x61 + x66 + x67 + x68 + x69 + x70 + x72 + x73 + x76 + x90 + x101 + x107 + x144 + x160 + x274 + x275 + x276 + x277 + x278 + x279 + x280 + x281 + x283 + x284 + x285 + x286 + x287 + x288 + x289 + x290 + x291 + x292 + x293 + x295 + x297 + x298 + x299 + x300 + x301 + x302 + x303 + x304 + x306 + x307 + x312 + x313 + x314 + x315 + x316 + x317 + x318 + x319 + x320 + x359 + x376 + x434 + x443 >= 3
 pair_1_7: x11 + x24 + x29 + x38 + x48 + x53 + x56 + x57 + x58 + x59 + x60 + x61 + x66 + x67 + x68 + x69 + x70 + x71 + x72 + x73 + x101 + x107 + x108 + x109 + x110 + x111 + x112 + x113 + x114 + x116 + x120 + x121 + x122 + x123 + x124 + x125 + x126 + x127 + x132 + x133 + x134 + x135 + x144 + x160 + x190 + x191 + x192 + x193 + x194 + x196 + x197 + x200 + x202 + x203 + x204 + x205 + x206 + x207 + x208 + x209 + x214 + x215 + x216 + x217 + x267 + x301 + x302 + x303 + x304 + x305 + x306 + x307 + x312 + x313 + x314 + x315 + x316 + x317 + x318 + x319
  + x320 + x321 + x359 + x376 + x379 + x401 + x425 + x443 + x456 + x464 >= 3
 pair_1_8: x11 + x24 + x29 + x90 + x101 + x107 + x114 + x134 + x135 + x158 + x267 + x359 + x425 + x464 >= 3
 pair_1_9: x11 + x24 + x29 + x56 + x57 + x58 + x59 + x66 + x67 + x68 + x69 + x70 + x71 + x72 + x73 + x76 + x90 + x101 + x107 + x108 + x109 + x110 + x111 + x112 + x113 + x114 + x116 + x120 + x121 + x122 + x123 + x124 + x125 + x126 + x127 + x132 + x133 + x134 + x135 + x158 + x190 + x191 + x192 + x193 + x194 + x196 + x197 + x200 + x202 + x203 + x204 + x205 + x206 + x207 + x208 + x209 + x214 + x215 + x216 + x217 + x267 + x359 + x376 + x379 + x401 + x410 + x425 + x456 + x464 >= 3
 pair_1_10: x11 + x24 + x29 + x30 + x31 + x32 + x33 + x34 + x35 + x38 + x40 + x41 + x42 + x43 + x44 + x45 + x46 + x50 + x52 + x54 + x55 + x56 + x57 + x58 + x59 + x60 + x61 + x66 + x67 + x68 + x69 + x70 + x71 + x72 + x73 + x76 + x90 + x101 + x107 + x108 + x109 + x110 + x111 + x112 + x113 + x114 + x116 + x120 + x121 + x122 + x123 + x124 + x125 + x126 + x127 + x132 + x133 + x134 + x135 + x158 + x190 + x191 + x192 + x193 + x194 + x196 + x197 + x200 + x202 + x203 + x204 + x205 + x206 + x207 + x208 + x209 + x214 + x215 + x216 + x217
  + x267 + x359 + x370 + x376 + x379 + x401 + x425 + x456 + x464 >= 3
 pair_1_11: x11 + x24 + x29 + x90 + x101 + x107 + x108 + x109 + x110 + x111 + x112 + x113 + x114 + x116 + x120 + x121 + x122 + x123 + x124 + x125 + x126 + x127 + x132 + x133 + x134 + x135 + x190 + x191 + x192 + x193 + x194 + x196 + x197 + x200 + x202 + x203 + x204 + x205 + x206 + x207 + x208 + x209 + x214 + x215 + x216 + x217 + x267 + x359 + x379 + x401 + x425 + x456 + x464 >= 3
 pair_1_12: x11 + x24 + x29 + x90 + x101 + x107 + x108 + x109 + x110 + x111 + x112 + x113 + x114 + x116 + x120 + x121 + x122 + x123 + x124 + x125 + x126 + x127 + x132 + x133 + x134 + x135 + x143 + x190 + x191 + x192 + x193 + x194 + x196 + x197 + x200 + x202 + x203 + x204 + x205 + x206 + x207 + x208 + x209 + x214 + x215 + x216 + x217 + x267 + x282 + x293 + x320 + x321 + x325 + x359 + x379 + x401 + x425 + x456 + x464 >= 3
 pair_1_13: x12 + x24 + x29 + x30 + x31 + x56 + x57 + x58 + x59 + x60 + x61 + x66 + x67 + x68 + x69 + x70 + x71 + x72 + x73 + x76 + x90 + x101 + x107 + x108 + x109 + x110 + x111 + x112 + x113 + x114 + x116 + x120 + x121 + x122 + x123 + x124 + x125 + x126 + x132 + x133 + x134 + x135 + x190 + x191 + x192 + x193 + x194 + x196 + x197 + x200 + x202 + x203 + x204 + x205 + x206 + x207 + x208 + x209 + x214 + x215 + x216 + x217 + x296 + x308 + x320 + x321 + x325 + x359 + x369 + x375 + x376 + x379 + x401 + x416 + x425 + x426 + x464 >= 3
 pair_2_3: x3 + x4 + x5 + x6 + x7 + x9 + x10 + x13 + x15 + x16 + x17 + x18 + x19 + x20 + x21 + x22 + x23 + x24 + x25 + x26 + x27 + x28 + x39 + x51 + x77 + x80 + x117 + x136 + x137 + x138 + x139 + x140 + x141 + x142 + x143 + x148 + x149 + x150 + x151 + x152 + x153 + x154 + x155 + x269 + x321 + x326 + x349 + x355 + x359 + x368 + x388 + x393 + x395 + x404 + x427 + x449 + x459 >= 3
 pair_2_4: x3 + x4 + x5 + x6 + x7 + x9 + x10 + x13 + x15 + x16 + x17 + x18 + x19 + x20 + x21 + x22 + x23 + x24 + x25 + x26 + x27 + x28 + x39 + x51 + x75 + x91 + x117 + x136 + x137 + x138 + x139 + x140 + x142 + x143 + x144 + x148 + x149 + x150 + x151 + x152 + x153 + x154 + x155 + x156 + x157 + x160 + x161 + x183 + x321 + x326 + x337 + x338 + x349 + x351 + x355 + x357 + x359 + x365 + x368 + x388 + x393 + x395 + x399 + x427 + x449 + x459 >= 3
 pair_2_5: x24 + x39 + x51 + x80 + x102 + x104 + x117 + x158 + x246 + x247 + x248 + x249 + x250 + x251 + x252 + x253 + x254 + x255 + x256 + x257 + x258 + x259 + x260 + x261 + x262 + x263 + x264 + x265 + x268 + x270 + x271 + x272 + x273 + x321 + x326 + x355 + x359 + x388 + x393 + x404 + x420 + x427 + x449 + x459 >= 3
 pair_2_6: x3 + x4 + x5 + x6 + x7 + x9 + x10 + x13 + x15 + x16 + x17 + x18 + x19 + x20 + x21 + x22 + x23 + x24 + x25 + x26 + x27 + x28 + x56 + x57 + x58 + x59 + x60 + x61 + x66 + x67 + x68 + x69 + x70 + x72 + x73 + x76 + x77 + x80 + x144 + x160 + x274 + x275 + x276 + x277 + x278 + x279 + x280 + x281 + x283 + x284 + x285 + x286 + x287 + x288 + x289 + x290 + x291 + x292 + x293 + x295 + x297 + x298 + x299 + x300 + x321 + x326 + x359 + x368 + x376 + x393 + x404 + x427 + x434 + x459 >= 3
 pair_2_7: x3 + x4 + x5 + x6 + x7 + x9 + x10 + x13 + x15 + x16 + x17 + x18 + x19 + x20 + x21 + x22 + x23 + x24 + x25 + x26 + x27 + x28 + x38 + x48 + x51 + x53 + x56 + x57 + x58 + x59 + x60 + x61 + x66 + x67 + x68 + x69 + x70 + x71 + x72 + x73 + x80 + x117 + x144 + x160 + x326 + x355 + x359 + x368 + x376 + x388 + x393 + x404 + x427 + x449 + x459 >= 3
 pair_2_8: x3 + x4 + x5 + x6 + x7 + x9 + x10 + x13 + x15 + x16 + x17 + x18 + x19 + x20 + x21 + x22 + x23 + x24 + x25 + x26 + x27 + x28 + x39 + x51 + x102 + x108 + x109 + x110 + x111 + x112 + x113 + x116 + x120 + x121 + x122 + x123 + x124 + x125 + x126 + x127 + x132 + x133 + x158 + x190 + x191 + x192 + x193 + x194 + x196 + x197 + x200 + x202 + x203 + x204 + x205 + x206 + x208 + x209 + x214 + x215 + x216 + x217 + x269 + x321 + x326 + x349 + x355 + x359 + x368 + x379 + x388 + x393 + x401 + x404 + x427 + x449 + x459 >= 3
 pair_2_9: x3 + x4 + x5 + x6 + x7 + x9 + x10 + x13 + x15 + x16 + x17 + x18 + x19 + x20 + x21 + x22 + x23 + x24 + x25 + x26 + x27 + x28 + x39 + x51 + x56 + x57 + x58 + x59 + x66 + x67 + x68 + x69 + x70 + x71 + x72 + x73 + x76 + x77 + x80 + x102 + x104 + x117 + x158 + x321 + x326 + x355 + x359 + x364 + x368 + x376 + x388 + x393 + x404 + x410 + x427 + x449 + x459 >= 3
 pair_2_10: x3 + x4 + x5 + x6 + x7 + x9 + x10 + x13 + x15 + x16 + x17 + x18 + x19 + x20 + x21 + x22 + x23 + x24 + x25 + x26 + x27 + x28 + x30 + x31 + x32 + x33 + x34 + x35 + x38 + x40 + x41 + x42 + x43 + x44 + x45 + x46 + x50 + x52 + x54 + x55 + x56 + x57 + x58 + x59 + x60 + x61 + x66 + x67 + x68 + x69 + x70 + x71 + x72 + x73 + x76 + x77 + x80 + x102 + x104 + x117 + x158 + x321 + x326 + x349 + x355 + x359 + x368 + x370 + x376 + x388 + x393 + x404 + x427 + x459 >= 3
 pair_2_11: x3 + x4 + x5 + x6 + x7 + x9 + x10 + x13 + x15 + x16 + x17 + x18 + x19 + x20 + x21 + x22 + x23 + x24 + x25 + x26 + x27 + x28 + x39 + x51 + x77 + x80 + x102 + x269 + x321 + x326 + x349 + x355 + x359 + x368 + x388 + x393 + x404 + x427 + x449 + x459 >= 3
 pair_2_12: x3 + x4 + x5 + x6 + x7 + x9 + x10 + x13 + x15 + x16 + x17 + x18 + x19 + x20 + x21 + x22 + x23 + x24 + x25 + x26 + x27 + x28 + x39 + x51 + x77 + x80 + x82 + x83 + x84 + x85 + x86 + x87 + x88 + x89 + x94 + x95 + x96 + x97 + x98 + x99 + x143 + x269 + x282 + x293 + x326 + x327 + x328 + x329 + x330 + x331 + x332 + x333 + x334 + x337 + x339 + x340 + x341 + x342 + x343 + x344 + x345 + x346 + x353 + x355 + x359 + x368 + x378 + x388 + x393 + x404 + x427 + x449 + x459 + x465 >= 3
 pair_2_13: x3 + x4 + x5 + x6 + x9 + x10 + x13 + x15 + x16 + x17 + x18 + x19 + x20 + x21 + x22 + x23 + x24 + x26 + x27 + x28 + x30 + x31 + x56 + x57 + x58 + x59 + x60 + x61 + x66 + x67 + x68 + x69 + x70 + x71 + x72 + x73 + x76 + x77 + x80 + x127 + x326 + x349 + x359 + x368 + x369 + x376 + x386 + x388 + x404 + x416 + x418 + x438 + x449 + x452 + x456 + x459 >= 3
 pair_3_4: x75 + x91 + x144 + x156 + x157 + x160 + x161 + x183 + x269 + x337 + x338 + x351 + x357 + x365 + x399 + x404 >= 3
 pair_3_5: x3 + x4 + x5 + x6 + x7 + x8 + x9 + x10 + x11 + x13 + x15 + x16 + x17 + x18 + x19 + x20 + x21 + x22 + x23 + x25 + x26 + x27 + x28 + x29 + x77 + x102 + x104 + x136 + x137 + x138 + x139 + x140 + x141 + x142 + x143 + x148 + x149 + x150 + x151 + x152 + x153 + x154 + x155 + x163 + x164 + x165 + x166 + x167 + x168 + x169 + x174 + x175 + x176 + x177 + x178 + x179 + x180 + x246 + x247 + x248 + x249 + x250 + x251 + x252 + x253 + x254 + x255 + x256 + x257 + x258 + x259 + x260 + x261 + x262 + x263 + x264 + x268 + x270 + x271 + x272
  + x273 + x349 + x368 + x395 + x400 + x420 >= 3
 pair_3_6: x56 + x57 + x58 + x59 + x60 + x61 + x66 + x67 + x68 + x69 + x70 + x72 + x73 + x76 + x144 + x160 + x163 + x164 + x165 + x166 + x167 + x168 + x169 + x174 + x175 + x176 + x177 + x178 + x179 + x180 + x218 + x219 + x220 + x221 + x222 + x223 + x224 + x225 + x230 + x231 + x232 + x233 + x234 + x235 + x236 + x237 + x244 + x274 + x275 + x276 + x277 + x278 + x279 + x280 + x281 + x283 + x284 + x285 + x286 + x287 + x288 + x289 + x290 + x291 + x292 + x293 + x295 + x297 + x298 + x299 + x300 + x301 + x302 + x303 + x304 + x306 + x307 + x312 + x313 + x314
  + x315 + x316 + x317 + x318 + x319 + x320 + x376 + x400 + x408 + x434 + x443 >= 3
 pair_3_7: x38 + x48 + x53 + x56 + x57 + x58 + x59 + x60 + x61 + x66 + x67 + x68 + x69 + x70 + x71 + x72 + x73 + x144 + x160 + x163 + x164 + x165 + x166 + x167 + x168 + x169 + x174 + x175 + x176 + x177 + x178 + x179 + x180 + x269 + x301 + x302 + x303 + x304 + x305 + x306 + x307 + x312 + x313 + x314 + x315 + x316 + x317 + x318 + x319 + x320 + x321 + x349 + x376 + x400 + x443 >= 3
 pair_3_8: x102 + x108 + x109 + x110 + x111 + x112 + x113 + x116 + x120 + x121 + x122 + x123 + x124 + x125 + x126 + x127 + x132 + x133 + x136 + x137 + x138 + x139 + x140 + x141 + x142 + x143 + x148 + x149 + x150 + x151 + x152 + x153 + x154 + x155 + x163 + x164 + x165 + x166 + x167 + x168 + x169 + x174 + x175 + x176 + x177 + x178 + x179 + x180 + x190 + x191 + x192 + x193 + x194 + x196 + x197 + x200 + x202 + x203 + x204 + x205 + x206 + x208 + x209 + x214 + x215 + x216 + x217 + x379 + x395 + x400 + x401 >= 3
 pair_3_9: x56 + x57 + x58 + x59 + x66 + x67 + x68 + x69 + x70 + x71 + x72 + x73 + x76 + x102 + x104 + x136 + x137 + x138 + x139 + x140 + x141 + x142 + x143 + x148 + x149 + x150 + x151 + x152 + x153 + x154 + x155 + x163 + x164 + x165 + x166 + x167 + x168 + x169 + x174 + x175 + x176 + x177 + x178 + x179 + x180 + x218 + x219 + x220 + x221 + x222 + x223 + x224 + x225 + x228 + x230 + x231 + x232 + x233 + x234 + x235 + x236 + x237 + x238 + x239 + x240 + x241 + x242 + x243 + x244 + x269 + x349 + x364 + x376 + x395 + x400 + x408 + x410 >= 3
 pair_3_10: x30 + x31 + x32 + x33 + x34 + x35 + x38 + x40 + x41 + x42 + x43 + x44 + x45 + x46 + x50 + x52 + x54 + x55 + x56 + x57 + x58 + x59 + x60 + x61 + x66 + x67 + x68 + x69 + x70 + x71 + x72 + x73 + x76 + x102 + x104 + x136 + x137 + x138 + x139 + x140 + x141 + x142 + x143 + x148 + x149 + x150 + x151 + x152 + x153 + x154 + x155 + x163 + x164 + x165 + x166 + x167 + x168 + x169 + x174 + x175 + x176 + x177 + x178 + x179 + x180 + x269 + x370 + x376 + x395 + x400 >= 3
 pair_3_11: x102 + x117 + x136 + x137 + x138 + x139 + x140 + x141 + x142 + x143 + x148 + x149 + x150 + x151 + x152 + x153 + x154 + x155 + x163 + x164 + x165 + x166 + x167 + x168 + x169 + x174 + x175 + x176 + x177 + x178 + x179 + x180 + x395 + x400 >= 3
 pair_3_12: x82 + x83 + x84 + x85 + x86 + x87 + x88 + x89 + x94 + x95 + x96 + x97 + x98 + x99 + x117 + x282 + x293 + x320 + x321 + x325 + x327 + x328 + x329 + x330 + x331 + x332 + x333 + x334 + x337 + x339 + x340 + x341 + x342 + x343 + x344 + x345 + x346 + x353 + x378 + x465 >= 3
 pair_3_13: x7 + x8 + x11 + x12 + x25 + x30 + x31 + x56 + x57 + x58 + x59 + x60 + x61 + x66 + x67 + x68 + x69 + x70 + x71 + x72 + x73 + x76 + x117 + x127 + x136 + x137 + x138 + x139 + x140 + x141 + x142 + x143 + x148 + x149 + x150 + x151 + x152 + x153 + x154 + x155 + x296 + x308 + x320 + x321 + x325 + x369 + x375 + x376 + x386 + x395 + x416 + x418 + x426 + x438 + x452 + x456 >= 3
 pair_4_5: x3 + x4 + x5 + x6 + x7 + x8 + x9 + x10 + x11 + x13 + x15 + x16 + x17 + x18 + x19 + x20 + x21 + x22 + x23 + x25 + x26 + x27 + x28 + x29 + x75 + x91 + x136 + x137 + x138 + x139 + x140 + x142 + x143 + x144 + x148 + x149 + x150 + x151 + x152 + x153 + x154 + x155 + x156 + x157 + x160 + x161 + x183 + x246 + x247 + x248 + x249 + x250 + x251 + x252 + x253 + x254 + x255 + x256 + x257 + x258 + x259 + x260 + x261 + x262 + x263 + x264 + x265 + x268 + x270 + x271 + x272 + x273 + x337 + x338 + x349 + x351 + x357 + x365 + x368 + x395
  + x399 + x404 + x420 >= 3
 pair_4_6: x75 + x91 + x157 + x161 + x183 + x218 + x219 + x220 + x221 + x222 + x223 + x224 + x225 + x230 + x231 + x232 + x233 + x234 + x235 + x236 + x237 + x244 + x274 + x275 + x276 + x277 + x278 + x279 + x280 + x281 + x283 + x284 + x285 + x286 + x287 + x288 + x289 + x290 + x291 + x292 + x293 + x295 + x297 + x298 + x299 + x300 + x301 + x302 + x303 + x304 + x306 + x307 + x312 + x313 + x314 + x315 + x316 + x317 + x318 + x319 + x320 + x357 + x365 + x404 + x408 + x434 + x443 >= 3
 pair_4_7: x38 + x48 + x53 + x75 + x91 + x157 + x161 + x183 + x301 + x302 + x303 + x304 + x305 + x306 + x307 + x312 + x313 + x314 + x315 + x316 + x317 + x318 + x319 + x320 + x321 + x337 + x338 + x349 + x351 + x357 + x365 + x399 + x404 + x443 >= 3
 pair_4_8: x91 + x108 + x109 + x110 + x111 + x112 + x113 + x116 + x120 + x121 + x122 + x123 + x124 + x125 + x126 + x127 + x132 + x133 + x136 + x137 + x138 + x139 + x140 + x142 + x143 + x144 + x148 + x149 + x150 + x151 + x152 + x153 + x154 + x155 + x156 + x157 + x160 + x161 + x183 + x190 + x191 + x192 + x193 + x194 + x196 + x197 + x200 + x202 + x203 + x204 + x205 + x206 + x208 + x209 + x214 + x215 + x216 + x217 + x269 + x338 + x351 + x357 + x365 + x379 + x395 + x399 + x401 + x404 >= 3
 pair_4_9: x75 + x91 + x136 + x137 + x138 + x139 + x140 + x142 + x143 + x144 + x148 + x149 + x150 + x151 + x152 + x153 + x154 + x155 + x156 + x157 + x160 + x161 + x183 + x218 + x219 + x220 + x221 + x222 + x223 + x224 + x225 + x228 + x230 + x231 + x232 + x233 + x234 + x235 + x236 + x237 + x238 + x239 + x240 + x241 + x242 + x243 + x244 + x337 + x338 + x349 + x351 + x357 + x364 + x365 + x395 + x399 + x404 + x408 + x410 >= 3
 pair_4_10: x30 + x31 + x32 + x33 + x34 + x35 + x38 + x40 + x41 + x42 + x43 + x44 + x45 + x46 + x50 + x52 + x54 + x55 + x75 + x91 + x136 + x137 + x138 + x139 + x140 + x142 + x143 + x144 + x148 + x149 + x150 + x151 + x152 + x153 + x154 + x155 + x156 + x157 + x160 + x161 + x183 + x337 + x338 + x351 + x357 + x365 + x370 + x395 + x399 + x404 >= 3
 pair_4_11: x75 + x91 + x117 + x136 + x137 + x138 + x139 + x140 + x142 + x143 + x144 + x148 + x149 + x150 + x151 + x152 + x153 + x154 + x155 + x156 + x157 + x160 + x161 + x183 + x269 + x337 + x338 + x351 + x357 + x365 + x395 + x399 + x404 >= 3
 pair_4_12: x75 + x91 + x117 + x144 + x156 + x157 + x160 + x161 + x183 + x269 + x282 + x293 + x320 + x321 + x325 + x327 + x328 + x329 + x330 + x331 + x332 + x333 + x334 + x338 + x339 + x340 + x341 + x342 + x343 + x344 + x345 + x346 + x353 + x357 + x365 + x404 + x465 >= 3
 pair_4_13: x7 + x8 + x11 + x12 + x25 + x30 + x31 + x75 + x91 + x117 + x127 + x136 + x137 + x138 + x139 + x140 + x142 + x143 + x144 + x148 + x149 + x150 + x151 + x152 + x153 + x154 + x155 + x156 + x157 + x160 + x161 + x183 + x296 + x308 + x320 + x321 + x325 + x337 + x338 + x351 + x357 + x365 + x369 + x375 + x386 + x395 + x399 + x404 + x416 + x418 + x426 + x438 + x452 + x456 >= 3
 pair_5_6: x3 + x4 + x5 + x6 + x7 + x8 + x9 + x10 + x11 + x13 + x15 + x16 + x17 + x18 + x19 + x20 + x21 + x22 + x23 + x25 + x26 + x27 + x28 + x29 + x56 + x57 + x58 + x59 + x60 + x61 + x66 + x67 + x68 + x69 + x70 + x72 + x73 + x76 + x77 + x144 + x160 + x218 + x219 + x220 + x221 + x222 + x223 + x224 + x225 + x230 + x231 + x232 + x233 + x234 + x235 + x236 + x237 + x244 + x274 + x275 + x276 + x277 + x278 + x279 + x280 + x281 + x283 + x284 + x285 + x286 + x287 + x288 + x289 + x290 + x291 + x292 + x293 + x295 + x297 + x298
  + x299 + x300 + x301 + x302 + x303 + x304 + x306 + x307 + x312 + x313 + x314 + x315 + x316 + x317 + x318 + x319 + x320 + x368 + x376 + x408 + x434 + x443 >= 3
 pair_5_7: x3 + x4 + x5 + x6 + x7 + x8 + x9 + x10 + x11 + x13 + x15 + x16 + x17 + x18 + x19 + x20 + x21 + x22 + x23 + x25 + x26 + x27 + x28 + x29 + x38 + x48 + x53 + x56 + x57 + x58 + x59 + x60 + x61 + x66 + x67 + x68 + x69 + x70 + x71 + x72 + x73 + x144 + x160 + x246 + x247 + x248 + x249 + x250 + x251 + x252 + x253 + x254 + x255 + x256 + x257 + x258 + x259 + x260 + x261 + x262 + x263 + x264 + x265 + x268 + x270 + x271 + x272 + x273 + x301 + x302 + x303 + x304 + x305 + x306 + x307 + x312 + x313 + x314 + x315 + x316
  + x317 + x318 + x319 + x320 + x321 + x368 + x376 + x420 + x443 >= 3
 pair_5_8: x3 + x4 + x5 + x6 + x7 + x8 + x9 + x10 + x11 + x13 + x15 + x16 + x17 + x18 + x19 + x20 + x21 + x22 + x23 + x25 + x26 + x27 + x28 + x29 + x104 + x108 + x109 + x110 + x111 + x112 + x113 + x116 + x120 + x121 + x122 + x123 + x124 + x125 + x126 + x127 + x132 + x133 + x190 + x191 + x192 + x193 + x194 + x196 + x197 + x200 + x202 + x203 + x204 + x205 + x206 + x208 + x209 + x214 + x215 + x216 + x217 + x246 + x247 + x248 + x249 + x250 + x251 + x252 + x253 + x254 + x255 + x256 + x257 + x258 + x259 + x260 + x261 + x262 + x263 + x264
  + x265 + x268 + x270 + x271 + x272 + x273 + x349 + x368 + x379 + x401 + x420 >= 3
 pair_5_9: x3 + x4 + x5 + x6 + x7 + x8 + x9 + x10 + x11 + x13 + x15 + x16 + x17 + x18 + x19 + x20 + x21 + x22 + x23 + x25 + x26 + x27 + x28 + x29 + x56 + x57 + x58 + x59 + x66 + x67 + x68 + x69 + x70 + x71 + x72 + x73 + x76 + x77 + x218 + x219 + x220 + x221 + x222 + x223 + x224 + x225 + x228 + x230 + x231 + x232 + x233 + x234 + x235 + x236 + x237 + x238 + x239 + x240 + x241 + x242 + x243 + x244 + x246 + x247 + x248 + x249 + x250 + x251 + x252 + x253 + x254 + x255 + x256 + x257 + x258 + x259 + x260 + x261 + x262 + x263
  + x264 + x265 + x268 + x270 + x271 + x272 + x273 + x364 + x368 + x376 + x408 + x410 + x420 >= 3
 pair_5_10: x3 + x4 + x5 + x6 + x7 + x8 + x9 + x10 + x11 + x13 + x15 + x16 + x17 + x18 + x19 + x20 + x21 + x22 + x23 + x25 + x26 + x27 + x28 + x29 + x30 + x31 + x32 + x33 + x34 + x35 + x38 + x40 + x41 + x42 + x43 + x44 + x45 + x46 + x50 + x52 + x54 + x55 + x56 + x57 + x58 + x59 + x60 + x61 + x66 + x67 + x68 + x69 + x70 + x71 + x72 + x73 + x76 + x77 + x246 + x247 + x248 + x249 + x250 + x251 + x252 + x253 + x254 + x255 + x256 + x257 + x258 + x259 + x260 + x261 + x262 + x263 + x264 + x265 + x268 + x270
  + x271 + x272 + x273 + x349 + x368 + x370 + x376 + x420 >= 3
 pair_5_11: x3 + x4 + x5 + x6 + x7 + x8 + x9 + x10 + x11 + x13 + x15 + x16 + x17 + x18 + x19 + x20 + x21 + x22 + x23 + x25 + x26 + x27 + x28 + x29 + x77 + x104 + x117 + x158 + x246 + x247 + x248 + x249 + x250 + x251 + x252 + x253 + x254 + x255 + x256 + x257 + x258 + x259 + x260 + x261 + x262 + x263 + x264 + x265 + x268 + x270 + x271 + x272 + x273 + x349 + x368 + x420 >= 3
 pair_5_12: x3 + x4 + x5 + x6 + x7 + x8 + x9 + x10 + x11 + x13 + x15 + x16 + x17 + x18 + x19 + x20 + x21 + x22 + x23 + x25 + x26 + x27 + x28 + x29 + x77 + x82 + x83 + x84 + x85 + x86 + x87 + x88 + x89 + x94 + x95 + x96 + x97 + x98 + x99 + x117 + x143 + x246 + x247 + x248 + x249 + x250 + x251 + x252 + x253 + x254 + x255 + x256 + x257 + x258 + x259 + x260 + x261 + x262 + x263 + x264 + x265 + x268 + x270 + x271 + x272 + x273 + x282 + x293 + x320 + x321 + x325 + x327 + x328 + x329 + x330 + x331 + x332 + x333 + x334 + x337
  + x339 + x340 + x341 + x342 + x343 + x344 + x345 + x346 + x353 + x368 + x378 + x420 + x465 >= 3
 pair_5_13: x3 + x4 + x5 + x6 + x9 + x10 + x12 + x13 + x15 + x16 + x17 + x18 + x19 + x20 + x21 + x22 + x23 + x26 + x27 + x28 + x29 + x30 + x31 + x56 + x57 + x58 + x59 + x60 + x61 + x66 + x67 + x68 + x69 + x70 + x71 + x72 + x73 + x76 + x77 + x102 + x104 + x117 + x127 + x158 + x296 + x308 + x320 + x321 + x325 + x349 + x368 + x369 + x375 + x376 + x386 + x416 + x418 + x426 + x438 + x452 + x456 >= 3
 pair_6_7: x71 + x218 + x219 + x220 + x221 + x222 + x223 + x224 + x225 + x230 + x231 + x232 + x233 + x234 + x235 + x236 + x237 + x244 + x274 + x275 + x276 + x277 + x278 + x279 + x280 + x281 + x283 + x284 + x285 + x286 + x287 + x288 + x289 + x290 + x291 + x292 + x293 + x295 + x297 + x298 + x299 + x300 + x321 + x408 + x434 >= 3
 pair_6_8: x144 + x160 + x218 + x219 + x220 + x221 + x222 + x223 + x224 + x225 + x230 + x231 + x232 + x233 + x234 + x235 + x236 + x237 + x244 + x274 + x275 + x276 + x277 + x278 + x279 + x280 + x281 + x283 + x284 + x285 + x286 + x287 + x288 + x289 + x290 + x291 + x292 + x293 + x295 + x297 + x298 + x299 + x300 + x301 + x302 + x303 + x304 + x306 + x307 + x312 + x313 + x314 + x315 + x316 + x317 + x318 + x319 + x320 + x408 + x434 + x443 >= 3
 pair_6_9: x60 + x61 + x71 + x144 + x160 + x240 + x241 + x274 + x275 + x276 + x277 + x278 + x279 + x280 + x281 + x283 + x284 + x285 + x286 + x287 + x288 + x289 + x290 + x291 + x292 + x293 + x295 + x297 + x298 + x299 + x300 + x301 + x302 + x303 + x304 + x306 + x307 + x312 + x313 + x314 + x315 + x316 + x317 + x318 + x319 + x320 + x364 + x434 + x443 >= 3
 pair_6_10: x71 + x144 + x160 + x218 + x219 + x220 + x221 + x222 + x223 + x224 + x225 + x230 + x231 + x232 + x233 + x234 + x235 + x236 + x237 + x244 + x274 + x275 + x276 + x277 + x278 + x279 + x280 + x281 + x283 + x284 + x285 + x286 + x287 + x288 + x289 + x290 + x291 + x292 + x293 + x295 + x297 + x298 + x299 + x300 + x301 + x302 + x303 + x304 + x306 + x307 + x312 + x313 + x314 + x315 + x316 + x317 + x318 + x319 + x320 + x408 + x434 + x443 >= 3
 pair_6_11: x56 + x57 + x58 + x59 + x60 + x61 + x66 + x67 + x68 + x69 + x70 + x72 + x73 + x76 + x144 + x160 + x218 + x219 + x220 + x221 + x222 + x223 + x224 + x225 + x230 + x231 + x232 + x233 + x234 + x235 + x236 + x237 + x244 + x274 + x275 + x276 + x277 + x278 + x279 + x280 + x281 + x283 + x284 + x285 + x286 + x287 + x288 + x289 + x290 + x291 + x292 + x293 + x295 + x297 + x298 + x299 + x300 + x301 + x302 + x303 + x304 + x306 + x307 + x312 + x313 + x314 + x315 + x316 + x317 + x318 + x319 + x320 + x376 + x408 + x434 + x443 >= 3
 pair_6_12: x56 + x57 + x58 + x59 + x60 + x61 + x66 + x67 + x68 + x69 + x70 + x72 + x73 + x76 + x82 + x83 + x84 + x85 + x86 + x87 + x88 + x89 + x94 + x95 + x96 + x97 + x98 + x99 + x144 + x160 + x218 + x219 + x220 + x221 + x222 + x223 + x224 + x225 + x230 + x231 + x232 + x233 + x234 + x235 + x236 + x237 + x244 + x274 + x275 + x276 + x277 + x278 + x279 + x280 + x281 + x283 + x284 + x285 + x286 + x287 + x288 + x289 + x290 + x291 + x292 + x295 + x297 + x298 + x299 + x300 + x321 + x325 + x376 + x378 + x408 + x434 >= 3
 pair_6_13: x7 + x8 + x11 + x12 + x25 + x71 + x144 + x160 + x274 + x275 + x276 + x277 + x278 + x279 + x280 + x281 + x283 + x284 + x285 + x286 + x287 + x288 + x289 + x290 + x291 + x292 + x293 + x295 + x297 + x298 + x299 + x300 + x308 + x321 + x325 + x369 + x386 + x418 + x434 + x438 >= 3
 pair_7_8: x38 + x48 + x53 + x108 + x109 + x110 + x111 + x112 + x113 + x116 + x120 + x121 + x122 + x123 + x124 + x125 + x126 + x127 + x132 + x133 + x144 + x160 + x190 + x191 + x192 + x193 + x194 + x196 + x197 + x200 + x202 + x203 + x204 + x205 + x206 + x208 + x209 + x214 + x215 + x216 + x217 + x269 + x301 + x302 + x303 + x304 + x305 + x306 + x307 + x312 + x313 + x314 + x315 + x316 + x317 + x318 + x319 + x320 + x321 + x349 + x379 + x401 + x443 >= 3
 pair_7_9: x38 + x48 + x53 + x60 + x61 + x144 + x160 + x218 + x219 + x220 + x221 + x222 + x223 + x224 + x225 + x228 + x230 + x231 + x232 + x233 + x234 + x235 + x236 + x237 + x238 + x239 + x240 + x241 + x242 + x243 + x244 + x301 + x302 + x303 + x304 + x305 + x306 + x307 + x312 + x313 + x314 + x315 + x316 + x317 + x318 + x319 + x320 + x321 + x364 + x408 + x410 + x443 >= 3
 pair_7_10: x30 + x31 + x32 + x33 + x34 + x35 + x40 + x41 + x42 + x43 + x44 + x45 + x46 + x50 + x52 + x54 + x55 + x144 + x160 + x301 + x302 + x303 + x304 + x305 + x306 + x307 + x312 + x313 + x314 + x315 + x316 + x317 + x318 + x319 + x320 + x321 + x349 + x370 + x443 >= 3
 pair_7_11: x38 + x48 + x53 + x56 + x57 + x58 + x59 + x60 + x61 + x66 + x67 + x68 + x69 + x70 + x71 + x72 + x73 + x117 + x144 + x160 + x269 + x301 + x302 + x303 + x304 + x305 + x306 + x307 + x312 + x313 + x314 + x315 + x316 + x317 + x318 + x319 + x320 + x321 + x349 + x376 + x443 >= 3
 pair_7_12: x38 + x48 + x53 + x56 + x57 + x58 + x59 + x60 + x61 + x66 + x67 + x68 + x69 + x70 + x71 + x72 + x73 + x82 + x83 + x84 + x85 + x86 + x87 + x88 + x89 + x94 + x95 + x96 + x97 + x98 + x99 + x117 + x144 + x160 + x269 + x282 + x293 + x325 + x327 + x328 + x329 + x330 + x331 + x332 + x333 + x334 + x337 + x339 + x340 + x341 + x342 + x343 + x344 + x345 + x346 + x353 + x376 + x378 + x465 >= 3
 pair_7_13: x7 + x8 + x11 + x12 + x25 + x30 + x31 + x117 + x127 + x144 + x160 + x296 + x308 + x325 + x349 + x369 + x375 + x386 + x416 + x418 + x426 + x438 + x452 + x456 >= 3
 pair_8_9: x104 + x108 + x109 + x110 + x111 + x112 + x113 + x116 + x120 + x121 + x122 + x123 + x124 + x125 + x126 + x127 + x132 + x133 + x190 + x191 + x192 + x193 + x194 + x196 + x197 + x200 + x202 + x203 + x204 + x205 + x206 + x208 + x209 + x214 + x215 + x216 + x217 + x218 + x219 + x220 + x221 + x222 + x223 + x224 + x225 + x228 + x230 + x231 + x232 + x233 + x234 + x235 + x236 + x237 + x238 + x239 + x240 + x241 + x242 + x243 + x244 + x269 + x349 + x364 + x379 + x401 + x408 + x410 >= 3
 pair_8_10: x30 + x31 + x32 + x33 + x34 + x35 + x38 + x40 + x41 + x42 + x43 + x44 + x45 + x46 + x50 + x52 + x54 + x55 + x104 + x108 + x109 + x110 + x111 + x112 + x113 + x116 + x120 + x121 + x122 + x123 + x124 + x125 + x126 + x127 + x132 + x133 + x190 + x191 + x192 + x193 + x194 + x196 + x197 + x200 + x202 + x203 + x204 + x205 + x206 + x208 + x209 + x214 + x215 + x216 + x217 + x269 + x370 + x379 + x401 >= 3
 pair_8_11: x108 + x109 + x110 + x111 + x112 + x113 + x116 + x120 + x121 + x122 + x123 + x124 + x125 + x126 + x127 + x132 + x133 + x158 + x190 + x191 + x192 + x193 + x194 + x196 + x197 + x200 + x202 + x203 + x204 + x205 + x206 + x208 + x209 + x214 + x215 + x216 + x217 + x379 + x401 >= 3
 pair_8_12: x82 + x83 + x84 + x85 + x86 + x87 + x88 + x89 + x94 + x95 + x96 + x97 + x98 + x99 + x108 + x109 + x110 + x111 + x112 + x113 + x116 + x120 + x121 + x122 + x123 + x124 + x125 + x126 + x127 + x132 + x133 + x143 + x190 + x191 + x192 + x193 + x194 + x196 + x197 + x200 + x202 + x203 + x204 + x205 + x206 + x208 + x209 + x214 + x215 + x216 + x217 + x282 + x293 + x320 + x321 + x325 + x327 + x328 + x329 + x330 + x331 + x332 + x333 + x334 + x339 + x340 + x341 + x342 + x343 + x344 + x345 + x346 + x353 + x378 + x379 + x401 + x465 >= 3
 pair_8_13: x7 + x8 + x11 + x12 + x25 + x30 + x31 + x102 + x108 + x109 + x110 + x111 + x112 + x113 + x116 + x120 + x121 + x122 + x123 + x124 + x125 + x126 + x132 + x133 + x158 + x190 + x191 + x192 + x193 + x194 + x196 + x197 + x200 + x202 + x203 + x204 + x205 + x206 + x208 + x209 + x214 + x215 + x216 + x217 + x296 + x308 + x320 + x321 + x325 + x369 + x375 + x379 + x386 + x401 + x416 + x418 + x426 + x438 >= 3
 pair_9_10: x30 + x31 + x32 + x33 + x34 + x35 + x38 + x40 + x41 + x42 + x43 + x44 + x45 + x46 + x50 + x52 + x54 + x55 + x60 + x61 + x218 + x219 + x220 + x221 + x222 + x223 + x224 + x225 + x228 + x230 + x231 + x232 + x233 + x234 + x235 + x236 + x237 + x238 + x239 + x240 + x241 + x242 + x243 + x244 + x349 + x370 + x408 + x410 >= 3
 pair_9_11: x56 + x57 + x58 + x59 + x66 + x67 + x68 + x69 + x70 + x71 + x72 + x73 + x76 + x104 + x117 + x158 + x218 + x219 + x220 + x221 + x222 + x223 + x224 + x225 + x228 + x230 + x231 + x232 + x233 + x234 + x235 + x236 + x237 + x238 + x239 + x240 + x241 + x242 + x243 + x244 + x269 + x349 + x364 + x376 + x408 + x410 >= 3
 pair_9_12: x56 + x57 + x58 + x59 + x66 + x67 + x68 + x69 + x70 + x71 + x72 + x73 + x76 + x82 + x83 + x84 + x85 + x86 + x87 + x88 + x89 + x94 + x95 + x96 + x97 + x98 + x99 + x117 + x143 + x218 + x219 + x220 + x221 + x222 + x223 + x224 + x225 + x228 + x230 + x231 + x232 + x233 + x234 + x235 + x236 + x237 + x238 + x239 + x240 + x241 + x242 + x243 + x244 + x269 + x282 + x293 + x320 + x321 + x325 + x327 + x328 + x329 + x330 + x331 + x332 + x333 + x334 + x337 + x339 + x340 + x341 + x342 + x343 + x344 + x345 + x346 + x353 + x364 + x376 + x378
  + x408 + x410 + x465 >= 3
 pair_9_13: x7 + x8 + x11 + x12 + x25 + x30 + x31 + x60 + x61 + x102 + x104 + x117 + x127 + x158 + x296 + x308 + x320 + x321 + x325 + x349 + x364 + x369 + x375 + x386 + x416 + x418 + x426 + x438 + x452 + x456 >= 3
 pair_10_11: x30 + x31 + x32 + x33 + x34 + x35 + x38 + x40 + x41 + x42 + x43 + x44 + x45 + x46 + x50 + x52 + x54 + x55 + x56 + x57 + x58 + x59 + x60 + x61 + x66 + x67 + x68 + x69 + x70 + x71 + x72 + x73 + x76 + x104 + x117 + x158 + x269 + x370 + x376 >= 3
 pair_10_12: x30 + x31 + x32 + x33 + x34 + x35 + x38 + x40 + x41 + x42 + x43 + x44 + x45 + x46 + x50 + x52 + x54 + x55 + x56 + x57 + x58 + x59 + x60 + x61 + x66 + x67 + x68 + x69 + x70 + x71 + x72 + x73 + x76 + x82 + x83 + x84 + x85 + x86 + x87 + x88 + x89 + x94 + x95 + x96 + x97 + x98 + x99 + x117 + x143 + x269 + x282 + x293 + x320 + x321 + x325 + x327 + x328 + x329 + x330 + x331 + x332 + x333 + x334 + x337 + x339 + x340 + x341 + x342 + x343 + x344 + x345 + x346 + x353 + x370 + x376 + x378 + x465 >= 3
 pair_10_13: x7 + x8 + x11 + x12 + x25 + x102 + x104 + x117 + x127 + x158 + x296 + x308 + x320 + x321 + x325 + x369 + x375 + x386 + x416 + x418 + x426 + x438 + x452 + x456 >= 3
 pair_11_12: x82 + x83 + x84 + x85 + x86 + x87 + x88 + x89 + x94 + x95 + x96 + x97 + x98 + x99 + x143 + x282 + x293 + x320 + x321 + x325 + x327 + x328 + x329 + x330 + x331 + x332 + x333 + x334 + x337 + x339 + x340 + x341 + x342 + x343 + x344 + x345 + x346 + x353 + x378 + x465 >= 3
 pair_11_13: x7 + x8 + x11 + x12 + x25 + x30 + x31 + x56 + x57 + x58 + x59 + x60 + x61 + x66 + x67 + x68 + x69 + x70 + x71 + x72 + x73 + x76 + x102 + x127 + x296 + x308 + x320 + x321 + x325 + x369 + x375 + x376 + x386 + x416 + x418 + x426 + x438 + x452 + x456 >= 3
 pair_12_13: x7 + x8 + x11 + x12 + x25 + x30 + x31 + x56 + x57 + x58 + x59 + x60 + x61 + x66 + x67 + x68 + x69 + x70 + x71 + x72 + x73 + x76 + x82 + x83 + x84 + x85 + x86 + x87 + x88 + x89 + x94 + x95 + x96 + x97 + x98 + x99 + x127 + x143 + x282 + x293 + x296 + x308 + x327 + x328 + x329 + x330 + x331 + x332 + x333 + x334 + x337 + x339 + x340 + x341 + x342 + x343 + x344 + x345 + x346 + x353 + x369 + x375 + x376 + x378 + x386 + x416 + x418 + x426 + x438 + x452 + x456 + x465 >= 3
 family_3: x3 + x4 + x5 + x6 + x7 + x8 + x9 + x10 + x11 + x12 + x13 + x14 + x15 + x16 + x17 + x18 + x19 + x20 + x21 + x22 + x23 + x24 + x25 + x26 + x27 + x28 + x29 + x368 <= 1
 family_4: x30 + x31 + x32 + x33 + x34 + x35 + x36 + x37 + x38 + x39 + x40 + x41 + x42 + x43 + x44 + x45 + x46 + x47 + x48 + x49 + x50 + x51 + x52 + x53 + x54 + x55 + x370 <= 1
 family_5: x56 + x57 + x58 + x59 + x60 + x61 + x62 + x63 + x64 + x65 + x66 + x67 + x68 + x69 + x70 + x71 + x72 + x73 + x74 + x75 + x76 + x77 + x78 + x79 + x80 + x81 + x376 <= 1
 family_6: x82 + x83 + x84 + x85 + x86 + x87 + x88 + x89 + x90 + x91 + x92 + x93 + x94 + x95 + x96 + x97 + x98 + x99 + x100 + x101 + x102 + x103 + x104 + x105 + x106 + x107 + x378 <= 1
 family_7: x108 + x109 + x110 + x111 + x112 + x113 + x114 + x115 + x116 + x117 + x118 + x119 + x120 + x121 + x122 + x123 + x124 + x125 + x126 + x127 + x128 + x129 + x130 + x131 + x132 + x133 + x134 + x135 + x379 <= 1
 family_8: x136 + x137 + x138 + x139 + x140 + x141 + x142 + x143 + x144 + x145 + x146 + x147 + x148 + x149 + x150 + x151 + x152 + x153 + x154 + x155 + x156 + x157 + x158 + x159 + x160 + x161 + x395 <= 1
 family_9: x162 + x163 + x164 + x165 + x166 + x167 + x168 + x169 + x170 + x171 + x172 + x173 + x174 + x175 + x176 + x177 + x178 + x179 + x180 + x181 + x182 + x183 + x184 + x185 + x186 + x187 + x188 + x189 + x400 <= 1
 family_10: x190 + x191 + x192 + x193 + x194 + x195 + x196 + x197 + x198 + x199 + x200 + x201 + x202 + x203 + x204 + x205 + x206 + x207 + x208 + x209 + x210 + x211 + x212 + x213 + x214 + x215 + x216 + x217 + x401 <= 1
 family_11: x218 + x219 + x220 + x221 + x222 + x223 + x224 + x225 + x226 + x227 + x228 + x229 + x230 + x231 + x232 + x233 + x234 + x235 + x236 + x237 + x238 + x239 + x240 + x241 + x242 + x243 + x244 + x245 + x408 <= 1
 family_12: x246 + x247 + x248 + x249 + x250 + x251 + x252 + x253 + x254 + x255 + x256 + x257 + x258 + x259 + x260 + x261 + x262 + x263 + x264 + x265 + x266 + x267 + x268 + x269 + x270 + x271 + x272 + x273 + x420 <= 1
 family_13: x274 + x275 + x276 + x277 + x278 + x279 + x280 + x281 + x282 + x283 + x284 + x285 + x286 + x287 + x288 + x289 + x290 + x291 + x292 + x293 + x294 + x295 + x296 + x297 + x298 + x299 + x300 + x434 <= 1
 family_14: x301 + x302 + x303 + x304 + x305 + x306 + x307 + x308 + x309 + x310 + x311 + x312 + x313 + x314 + x315 + x316 + x317 + x318 + x319 + x320 + x321 + x322 + x323 + x324 + x325 + x326 + x443 <= 1
 family_15: x327 + x328 + x329 + x330 + x331 + x332 + x333 + x334 + x335 + x336 + x337 + x338 + x339 + x340 + x341 + x342 + x343 + x344 + x345 + x346 + x347 + x348 + x349 + x350 + x351 + x352 + x353 + x354 + x465 <= 1
Binary
 x0 x1 x2 x3 x4 x5 x6 x7 x8 x9 x10 x11 x12 x13 x14 x15 x16 x17 x18 x19
 x20 x21 x22 x23 x24 x25 x26 x27 x28 x29 x30 x31 x32 x33 x34 x35 x36 x37 x38 x39
 x40 x41 x42 x43 x44 x45 x46 x47 x48 x49 x50 x51 x52 x53 x54 x55 x56 x57 x58 x59
 x60 x61 x62 x63 x64 x65 x66 x67 x68 x69 x70 x71 x72 x73 x74 x75 x76 x77 x78 x79
 x80 x81 x82 x83 x84 x85 x86 x87 x88 x89 x90 x91 x92 x93 x94 x95 x96 x97 x98 x99
 x100 x101 x102 x103 x104 x105 x106 x107 x108 x109 x110 x111 x112 x113 x114 x115 x116 x117 x118 x119
 x120 x121 x122 x123 x124 x125 x126 x127 x128 x129 x130 x131 x132 x133 x134 x135 x136 x137 x138 x139
 x140 x141 x142 x143 x144 x145 x146 x147 x148 x149 x150 x151 x152 x153 x154 x155 x156 x157 x158 x159
 x160 x161 x162 x163 x164 x165 x166 x167 x168 x169 x170 x171 x172 x173 x174 x175 x176 x177 x178 x179
 x180 x181 x182 x183 x184 x185 x186 x187 x188 x189 x190 x191 x192 x193 x194 x195 x196 x197 x198 x199
 x200 x201 x202 x203 x204 x205 x206 x207 x208 x209 x210 x211 x212 x213 x214 x215 x216 x217 x218 x219
 x220 x221 x222 x223 x224 x225 x226 x227 x228 x229 x230 x231 x232 x233 x234 x235 x236 x237 x238 x239
 x240 x241 x242 x243 x244 x245 x246 x247 x248 x249 x250 x251 x252 x253 x254 x255 x256 x257 x258 x259
 x260 x261 x262 x263 x264 x265 x266 x267 x268 x269 x270 x271 x272 x273 x274 x275 x276 x277 x278 x279
 x280 x281 x282 x283 x284 x285 x286 x287 x288 x289 x290 x291 x292 x293 x294 x295 x296 x297 x298 x299
 x300 x301 x302 x303 x304 x305 x306 x307 x308 x309 x310 x311 x312 x313 x314 x315 x316 x317 x318 x319
 x320 x321 x322 x323 x324 x325 x326 x327 x328 x329 x330 x331 x332 x333 x334 x335 x336 x337 x338 x339
 x340 x341 x342 x343 x344 x345 x346 x347 x348 x349 x350 x351 x352 x353 x354 x355 x356 x357 x358 x359
 x360 x361 x362 x363 x364 x365 x366 x367 x368 x369 x370 x371 x372 x373 x374 x375 x376 x377 x378 x379
 x380 x381 x382 x383 x384 x385 x386 x387 x388 x389 x390 x391 x392 x393 x394 x395 x396 x397 x398 x399
 x400 x401 x402 x403 x404 x405 x406 x407 x408 x409 x410 x411 x412 x413 x414 x415 x416 x417 x418 x419
 x420 x421 x422 x423 x424 x425 x426 x427 x428 x429 x430 x431 x432 x433 x434 x435 x436 x437 x438 x439
 x440 x441 x442 x443 x444 x445 x446 x447 x448 x449 x450 x451 x452 x453 x454 x455 x456 x457 x458 x459
 x460 x461 x462 x463 x464 x465
End
