Minimize
 obj: x0 + x1 + x2 + x3 + x4 + x5 + x6 + x7 + x8 + x9 + x10 + x11 + x12 + x13 + x14 + x15 + x16 + x17 + x18 + x19 + x20 + x21 + x22 + x23 + x24 + x25 + x26 + x27 + x28 + x29 + x30 + x31 + x32 + x33 + x34 + x35 + x36 + x37 + x38 + x39 + x40 + x41 + x42 + x43 + x44 + x45 + x46 + x47 + x48 + x49 + x50 + x51 + x52 + x53 + x54 + x55 + x56 + x57 + x58 + x59 + x60 + x61 + x62 + x63 + x64 + x65 + x66 + x67 + x68 + x69 + x70 + x71 + x72 + x73 + x74 + x75 + x76 + x77 + x78 + x79
  + x80 + x81 + x82 + x83 + x84 + x85 + x86 + x87 + x88 + x89 + x90 + x91 + x92 + x93 + x94 + x95 + x96 + x97 + x98 + x99 + x100 + x101 + x102 + x103 + x104 + x105 + x106 + x107 + x108 + x109 + x110 + x111 + x112 + x113
Subject To
 pair_0_1: x7 + x27 + x49 + x73 + x104 + x112 >= 1
 pair_0_2: x3 + x7 + x16 + x36 + x41 + x52 + x75 + x97 + x107 >= 1
 pair_0_3: x43 + x48 >= 1
 pair_0_4: x5 + x13 + x43 + x47 + x52 >= 1
 pair_0_5: x16 + x68 >= 1
 pair_0_6: x24 + x56 + x82 + x91 >= 1
 pair_0_7: x24 + x91 >= 1
 pair_0_8: x27 + x49 >= 1
 pair_0_9: x12 + x24 + x56 + x58 >= 1
 pair_0_10: x18 + x24 >= 1
 pair_0_11: x26 + x113 >= 1
 pair_0_12: x17 + x23 + x24 + x34 + x64 + x66 + x74 + x86 + x100 + x104 >= 1
 pair_1_2: x3 + x27 + x36 + x41 + x49 + x52 + x73 + x75 + x97 + x104 + x107 + x112 >= 1
 pair_1_3: x7 + x27 + x43 + x49 + x73 + x104 + x112 >= 1
 pair_1_4: x5 + x7 + x13 + x27 + x43 + x49 + x52 + x73 + x104 + x112 >= 1
 pair_1_5: x7 + x27 + x49 + x73 + x104 + x112 >= 1
 pair_1_6: x7 + x24 + x82 + x91 >= 1
 pair_1_7: x7 + x24 + x27 + x49 + x73 + x91 + x104 + x112 >= 1
 pair_1_8: x7 + x73 + x112 >= 1
 pair_1_9: x7 + x24 + x27 + x49 + x58 + x73 + x104 + x112 >= 1
 pair_1_10: x7 + x18 + x24 + x27 + x49 + x73 + x104 + x112 >= 1
 pair_1_11: x7 + x27 + x49 + x73 + x104 + x112 >= 1
 pair_1_12: x7 + x17 + x23 + x24 + x27 + x49 + x64 + x73 + x74 + x112 >= 1
 pair_2_3: x3 + x7 + x16 + x36 + x41 + x43 + x52 + x75 + x97 + x107 >= 1
 pair_2_4: x3 + x5 + x7 + x13 + x16 + x36 + x41 + x43 + x47 + x75 + x97 + x107 >= 1
 pair_2_5: x3 + x7 + x36 + x41 + x52 + x68 + x75 + x97 + x107 >= 1
 pair_2_6: x7 + x16 + x24 + x41 + x52 + x75 + x82 + x107 >= 1
 pair_2_7: x3 + x7 + x16 + x24 + x36 + x41 + x52 + x75 + x97 + x107 >= 1
 pair_2_8: x3 + x7 + x16 + x27 + x36 + x41 + x49 + x52 + x75 + x97 + x107 >= 1
 pair_2_9: x3 + x7 + x12 + x16 + x24 + x36 + x41 + x52 + x58 + x75 + x97 + x107 >= 1
 pair_2_10: x3 + x7 + x16 + x18 + x24 + x36 + x41 + x52 + x75 + x107 >= 1
 pair_2_11: x3 + x7 + x16 + x26 + x36 + x41 + x52 + x75 + x97 + x107 + x113 >= 1
 pair_2_12: x7 + x16 + x17 + x24 + x34 + x36 + x52 + x64 + x66 + x86 + x97 + x100 + x104 + x107 >= 1
 pair_3_4: x5 + x13 + x47 + x52 >= 1
 pair_3_5: x16 + x43 + x48 + x68 >= 1
 pair_3_6: x24 + x48 + x56 + x82 + x91 >= 1
 pair_3_7: x24 + x48 + x91 >= 1
 pair_3_8: x27 + x43 + x48 + x49 >= 1
 pair_3_9: x12 + x24 + x43 + x48 + x56 + x58 >= 1
 pair_3_10: x18 + x24 + x43 + x48 >= 1
 pair_3_11: x26 + x113 >= 1
 pair_3_12: x17 + x23 + x24 + x34 + x43 + x64 + x66 + x74 + x86 + x100 + x104 >= 1
 pair_4_5: x5 + x13 + x16 + x43 + x47 + x52 + x68 >= 1
 pair_4_6: x5 + x13 + x52 + x56 + x82 + x91 >= 1
 pair_4_7: x5 + x13 + x47 + x52 + x91 >= 1
 pair_4_8: x5 + x13 + x27 + x43 + x47 + x49 + x52 >= 1
 pair_4_9: x5 + x12 + x13 + x43 + x47 + x52 + x56 + x58 >= 1
 pair_4_10: x5 + x13 + x18 + x43 + x47 + x52 >= 1
 pair_4_11: x5 + x13 + x52 + x113 >= 1
 pair_4_12: x5 + x13 + x17 + x23 + x34 + x43 + x47 + x52 + x64 + x66 + x74 + x86 + x100 + x104 >= 1
 pair_5_6: x16 + x24 + x56 + x82 + x91 >= 1
 pair_5_7: x16 + x24 + x68 + x91 >= 1
 pair_5_8: x16 + x27 + x49 + x68 >= 1
 pair_5_9: x12 + x16 + x24 + x56 + x58 + x68 >= 1
 pair_5_10: x16 + x18 + x24 + x68 >= 1
 pair_5_11: x16 + x26 + x68 + x113 >= 1
 pair_5_12: x16 + x17 + x23 + x24 + x34 + x64 + x66 + x74 + x86 + x100 + x104 >= 1
 pair_6_7: x56 + x82 >= 1
 pair_6_8: x56 + x82 + x91 >= 1
 pair_6_9: x12 + x82 + x91 >= 1
 pair_6_10: x56 + x82 + x91 >= 1
 pair_6_11: x24 + x26 + x56 + x82 >= 1
 pair_6_12: x17 + x34 + x66 + x82 + x86 >= 1
 pair_7_8: x27 + x49 + x91 >= 1
 pair_7_9: x12 + x56 + x58 + x91 >= 1
 pair_7_10: x18 + x91 >= 1
 pair_7_11: x24 + x26 + x113 >= 1
 pair_7_12: x17 + x23 + x34 + x64 + x66 + x74 + x86 + x100 + x104 >= 1
 pair_8_9: x12 + x27 + x49 + x56 + x58 >= 1
 pair_8_10: x18 + x27 + x49 >= 1
 pair_8_11: x26 + x27 + x49 + x113 >= 1
 pair_8_12: x17 + x23 + x27 + x34 + x49 + x64 + x66 + x74 + x86 >= 1
 pair_9_10: x18 + x56 + x58 >= 1
 pair_9_11: x12 + x24 + x26 + x56 + x58 + x113 >= 1
 pair_9_12: x12 + x17 + x23 + x34 + x64 + x66 + x74 + x86 + x100 + x104 >= 1
 pair_10_11: x18 + x24 + x26 + x113 >= 1
 pair_10_12: x17 + x23 + x34 + x64 + x66 + x74 + x86 + x100 + x104 >= 1
 pair_11_12: x17 + x23 + x24 + x26 + x34 + x64 + x66 + x74 + x86 + x100 + x104 + x113 >= 1
Binary
 x0 x1 x2 x3 x4 x5 x6 x7 x8 x9 x10 x11 x12 x13 x14 x15 x16 x17 x18 x19
 x20 x21 x22 x23 x24 x25 x26 x27 x28 x29 x30 x31 x32 x33 x34 x35 x36 x37 x38 x39
 x40 x41 x42 x43 x44 x45 x46 x47 x48 x49 x50 x51 x52 x53 x54 x55 x56 x57 x58 x59
 x60 x61 x62 x63 x64 x65 x66 x67 x68 x69 x70 x71 x72 x73 x74 x75 x76 x77 x78 x79
 x80 x81 x82 x83 x84 x85 x86 x87 x88 x89 x90 x91 x92 x93 x94 x95 x96 x97 x98 x99
 x100 x101 x102 x103 x104 x105 x106 x107 x108 x109 x110 x111 x112 x113
End
